(declare-const __VERIFIER_assert__cond___18 Int)
(declare-const havoc Int)
(declare-const |havoc:3:62:207| Int)
(declare-const |main__t':147:167:174:181:209| Int)
(declare-const |K:165:166:173:180:208| Int)
(declare-const |__tmp_383_0':146:170:177:184:212| Int)
(declare-const |__VERIFIER_assert__cond___17':150:168:175:182:210| Int)
(declare-const |main____CPAchecker_TMP_0___0':149:172:179:186:214| Int)
(declare-const |main____CPAchecker_TMP_0':148:169:176:183:211| Int)
(declare-const main____CPAchecker_TMP_0___0 Int)
(declare-const __VERIFIER_assert__cond___17 Int)
(declare-const |havoc:9:63:145:206:215| Int)
(declare-const |__VERIFIER_assert__cond___18':151:171:178:185:213| Int)
(assert (and (<= (+ (- havoc) 1) 0) (not (= (+ (- havoc) 1) 0))
               (= |havoc:3:62:207| 0)
               (not (= (ite (<= (+ (- havoc) 1) 0) 1 0) 0))
               (or (not (<= (- |K:165:166:173:180:208|) 0))
                     (= (+ |main__t':147:167:174:181:209|
                             (- |K:165:166:173:180:208|)) 0))
               (or (not (and (<= (- |K:165:166:173:180:208|) 0)
                               (<= |K:165:166:173:180:208| 0)))
                     (= (+ (- __VERIFIER_assert__cond___17)
                             |__VERIFIER_assert__cond___17':150:168:175:182:210|) 0))
               (or (not (<= (+ (- |K:165:166:173:180:208|) 1) 0))
                     (= (+ |__VERIFIER_assert__cond___17':150:168:175:182:210|
                             -1) 0))
               (or (not (and (<= (- |K:165:166:173:180:208|) 0)
                               (<= |K:165:166:173:180:208| 0)))
                     (= (+ |main____CPAchecker_TMP_0':148:169:176:183:211|
                             (- |havoc:3:62:207|)) 0))
               (or (not (<= (+ (- |K:165:166:173:180:208|) 1) 0))
                     (= |main____CPAchecker_TMP_0':148:169:176:183:211| 0))
               (or (not (and (<= (- |K:165:166:173:180:208|) 0)
                               (<= |K:165:166:173:180:208| 0)))
                     (= (+ |__tmp_383_0':146:170:177:184:212|
                             (- |havoc:3:62:207|)) 0))
               (or (not (<= (+ (- |K:165:166:173:180:208|) 1) 0))
                     (= |__tmp_383_0':146:170:177:184:212| 0))
               (or (not (and (<= (- |K:165:166:173:180:208|) 0)
                               (<= |K:165:166:173:180:208| 0)))
                     (= (+ (- __VERIFIER_assert__cond___18)
                             |__VERIFIER_assert__cond___18':151:171:178:185:213|) 0))
               (or (not (<= (+ (- |K:165:166:173:180:208|) 1) 0))
                     (= (+ |__VERIFIER_assert__cond___18':151:171:178:185:213|
                             -1) 0))
               (or (not (and (<= (- |K:165:166:173:180:208|) 0)
                               (<= |K:165:166:173:180:208| 0)))
                     (= (+ (- main____CPAchecker_TMP_0___0)
                             |main____CPAchecker_TMP_0___0':149:172:179:186:214|) 0))
               (or (not (<= (+ (- |K:165:166:173:180:208|) 1) 0))
                     (= |main____CPAchecker_TMP_0___0':149:172:179:186:214| 0))
               (or (and (= |K:165:166:173:180:208| 0)
                          (= (+ __VERIFIER_assert__cond___18
                                  (- |__VERIFIER_assert__cond___18':151:171:178:185:213|)) 0)
                          (= (+ __VERIFIER_assert__cond___17
                                  (- |__VERIFIER_assert__cond___17':150:168:175:182:210|)) 0)
                          (= (+ main____CPAchecker_TMP_0___0
                                  (- |main____CPAchecker_TMP_0___0':149:172:179:186:214|)) 0)
                          (= (+ (- |main____CPAchecker_TMP_0':148:169:176:183:211|)
                                  |havoc:3:62:207|) 0)
                          (= (- |main__t':147:167:174:181:209|) 0)
                          (= (+ (- |__tmp_383_0':146:170:177:184:212|)
                                  |havoc:3:62:207|) 0))
                     (and (<= (+ (- |K:165:166:173:180:208|) 1) 0)
                            (= |havoc:3:62:207| 0) (= |havoc:3:62:207| 0)
                            (<= (+ (- havoc) 3) 0)
                            (= (+ |__VERIFIER_assert__cond___18':151:171:178:185:213|
                                    -1) 0)
                            (= (+ |__VERIFIER_assert__cond___17':150:168:175:182:210|
                                    -1) 0)
                            (= |main____CPAchecker_TMP_0':148:169:176:183:211| 0)
                            (= |main____CPAchecker_TMP_0___0':149:172:179:186:214| 0)
                            (= |__tmp_383_0':146:170:177:184:212| 0)
                            (<= (+ |main__t':147:167:174:181:209| (- havoc) 2) 0)
                            (<= (+ (- |main__t':147:167:174:181:209|) 1) 0)))
               (<= (- |K:165:166:173:180:208|) 0)
               (= |__tmp_383_0':146:170:177:184:212| 0)
               (= |main____CPAchecker_TMP_0':148:169:176:183:211| 0)
               (<= (- |main__t':147:167:174:181:209|) 0)
               (< (+ (- havoc) 1) 0) (= |__tmp_383_0':146:170:177:184:212| 0)
               (= |main____CPAchecker_TMP_0':148:169:176:183:211| 0)
               (not (= (+ |main__t':147:167:174:181:209| (- havoc) 2) 0))
               (= |havoc:9:63:145:206:215| 0)
               (= (ite (<= (+ (- |main__t':147:167:174:181:209|) -1) 0) 1 0) 0)))
(check-sat)
